(declare-const a Real)
(declare-const b Real)
(declare-const c Real)
(declare-const d Real)
(assert (= (+ a b c d) 4))
(assert (> a 0))
(assert (> b 0))
(assert (> c 0))
(assert (> d 0))
(assert (not (<= (+ 1 (* (pow (* (pow c (pow (+ (pow c 3) (* 63 a b d)) (/ -1 3))) (pow (* (pow b (pow 3 -1)) (pow d (pow 3 -1))) (* 3 (pow a (pow 3 -1)) (pow (+ (pow a 3) (* 63 b c d)) (/ -1 9)) (pow (+ (pow b 3) (* 63 a c d)) (/ -1 9)) (pow (+ (pow d 3) (* 63 a b c)) (/ -1 9))))) (pow (+ (pow (+ (pow c 3) (* 63 a b d)) (/ -1 3)) (* 3 (pow a (pow 3 -1)) (pow (+ (pow a 3) (* 63 b c d)) (/ -1 9)) (pow (+ (pow b 3) (* 63 a c d)) (/ -1 9)) (pow (+ (pow d 3) (* 63 a b c)) (/ -1 9)))) -1)) (+ (* -1 (pow (+ (pow c 3) (* 63 a b d)) (/ -1 3))) (* -3 (pow a (pow 3 -1)) (pow (* (+ (pow a 3) (* 63 b c d)) (+ (pow b 3) (* 63 a c d)) (+ (pow d 3) (* 63 a b c))) (/ -1 9)))))) 0)))
(check-sat)
(get-model)
(exit)